% demand
num_movements = 21;
loading_factor = [1450, 1850, 1300, 1750, 1800, 1400, 1500, 1000, 1450, 1700, 800, 1150, 1600, 800, 1750, 900, 1650, 1350, 1350, 1100, 1750];
pickup_time = [0, 0, 0, 0, 1, 1, 1, 1, 3, 3, 3, 3, 3, 7, 7, 7, 7, 8, 8, 10, 10];
delivery_time = [1, 1, 2, 1, 2, 2, 2, 2, 7, 7, 7, 7, 6, 8, 11, 10, 9, 10, 10, 11, 11];

% transporter definition
total_capacity = 7000;
num_decks = 3;
capacity = [3000, 1000, 3000];

% ways out of decks
num_ways_out = 1;
paths_out = array3d(decks, ways_out, decks, [
% ways out of deck d1
2, 3, 0, 

% ways out of deck d2
3, 0, 0, 

% ways out of deck d3
0, 0, 0,	

]);

